c preprocessed version of dimacs_mulsol.i.5, 74 vertices, 1116 edges
p td 74 1116
0 1
0 35
0 37
0 39
0 41
0 43
0 45
0 46
0 44
0 42
0 40
0 38
0 36
0 34
0 47
2 1
27 1
28 1
29 1
30 1
31 1
32 1
2 3
2 5
2 27
2 28
2 29
2 30
2 31
2 32
2 33
2 35
2 37
2 39
2 41
2 43
2 45
2 46
2 44
2 42
2 40
2 38
2 36
2 34
2 47
2 26
2 64
2 21
2 23
2 25
2 49
2 53
2 62
2 63
2 60
2 58
2 61
2 54
2 56
2 59
2 57
2 55
2 52
2 50
2 51
2 22
2 24
2 20
66 2
65 2
67 2
4 3
6 3
7 3
8 3
9 3
10 3
11 3
12 3
13 3
14 3
15 3
16 3
17 3
18 3
19 3
20 3
22 3
24 3
26 3
50 3
58 3
63 3
62 3
49 3
25 3
23 3
21 3
3 5
48 3
4 5
4 6
4 7
4 8
4 9
4 10
4 11
4 12
4 13
4 14
4 15
4 16
4 17
4 18
4 19
4 20
4 22
4 24
4 64
4 26
4 51
4 50
4 52
4 55
4 57
4 59
4 56
4 54
4 61
4 58
4 60
4 63
4 62
4 53
4 49
4 25
4 23
4 21
48 4
66 4
65 4
67 4
6 5
7 5
8 5
9 5
10 5
11 5
12 5
13 5
14 5
15 5
16 5
17 5
18 5
19 5
20 5
22 5
24 5
26 5
50 5
58 5
63 5
62 5
49 5
25 5
23 5
21 5
48 5
6 7
6 8
6 9
6 10
6 11
6 12
6 13
6 14
6 15
6 16
6 17
6 18
6 19
6 20
6 22
6 24
6 64
6 26
6 51
6 50
6 52
6 55
6 57
6 59
6 56
6 54
6 61
6 58
6 60
6 63
6 62
6 53
6 49
6 25
6 23
6 21
48 6
66 6
65 6
67 6
7 8
7 9
7 10
7 11
7 12
7 13
7 14
7 15
7 16
7 17
7 18
7 19
7 20
7 22
7 24
7 64
7 26
7 51
7 50
7 52
7 55
7 57
7 59
7 56
7 54
7 61
7 58
7 60
7 63
7 62
7 53
7 49
7 25
7 23
7 21
48 7
66 7
65 7
67 7
8 9
8 10
8 11
8 12
8 13
8 14
8 15
8 16
8 17
8 18
8 19
8 20
8 22
8 24
8 64
8 26
8 51
8 50
8 52
8 55
8 57
8 59
8 56
8 54
8 61
8 58
8 60
8 63
8 62
8 53
8 49
8 25
8 23
8 21
48 8
66 8
65 8
67 8
9 10
9 11
9 12
9 13
9 14
9 15
9 16
9 17
9 18
9 19
9 20
9 22
9 24
9 64
9 26
9 51
9 50
9 52
9 55
9 57
9 59
9 56
9 54
9 61
9 58
9 60
9 63
9 62
9 53
9 49
9 25
9 23
9 21
9 37
48 9
66 9
65 9
67 9
10 11
10 12
10 13
10 14
10 15
10 16
10 17
10 18
10 19
10 20
10 22
10 24
10 64
10 26
10 51
10 50
10 52
10 55
10 57
10 59
10 56
10 54
10 61
10 58
10 60
10 63
10 62
10 53
10 49
10 25
10 23
10 21
10 39
10 37
48 10
66 10
65 10
67 10
11 12
11 13
11 14
11 15
11 16
11 17
11 18
11 19
11 20
11 22
11 24
11 64
11 26
11 51
11 50
11 52
11 55
11 57
11 59
11 56
11 54
11 61
11 58
11 60
11 63
11 62
11 53
11 49
11 25
11 23
11 21
11 41
11 39
11 37
48 11
66 11
65 11
67 11
12 13
12 14
12 15
12 16
12 17
12 18
12 19
12 20
12 22
12 24
12 64
12 26
12 51
12 50
12 52
12 55
12 57
12 59
12 56
12 54
12 61
12 58
12 60
12 63
12 62
12 53
12 49
12 25
12 23
12 21
12 43
12 41
12 39
12 37
48 12
66 12
65 12
67 12
13 14
13 15
13 16
13 17
13 18
13 19
13 20
13 22
13 24
13 64
13 26
13 51
13 50
13 52
13 55
13 57
13 59
13 56
13 54
13 61
13 58
13 60
13 63
13 62
13 53
13 49
13 25
13 23
13 21
13 45
13 43
13 41
13 39
13 37
48 13
66 13
65 13
67 13
14 15
14 16
14 17
14 18
14 19
14 20
14 22
14 24
14 64
14 26
14 51
14 50
14 52
14 55
14 57
14 59
14 56
14 54
14 61
14 58
14 60
14 63
14 62
14 53
14 49
14 25
14 23
14 21
48 14
66 14
65 14
67 14
15 16
15 17
15 18
15 19
15 20
15 22
15 24
15 64
15 26
15 51
15 50
15 52
15 55
15 57
15 59
15 56
15 54
15 61
15 58
15 60
15 63
15 62
15 53
15 49
15 25
15 23
15 21
48 15
65 15
67 15
16 17
16 18
16 19
16 20
16 22
16 24
16 64
16 26
16 51
16 50
16 52
16 55
16 57
16 59
16 56
16 54
16 61
16 58
16 60
16 63
16 62
16 53
16 49
16 25
16 23
16 21
48 16
65 16
67 16
17 18
17 19
17 20
17 22
17 24
17 64
17 26
17 51
17 50
17 52
17 55
17 57
17 59
17 56
17 54
17 61
17 58
17 60
17 63
17 62
17 53
17 49
17 25
17 23
17 21
48 17
65 17
67 17
18 19
18 20
18 22
18 24
18 64
18 26
18 51
18 50
18 52
18 55
18 57
18 59
18 56
18 54
18 61
18 58
18 60
18 63
18 62
18 53
18 49
18 25
18 23
18 21
48 18
65 18
67 18
19 20
19 22
19 24
19 64
19 26
19 51
19 50
19 52
19 55
19 57
19 59
19 56
19 54
19 61
19 58
19 60
19 63
19 62
19 53
19 49
19 25
19 23
19 21
48 19
65 19
67 19
20 21
20 23
20 25
20 62
20 63
20 58
20 50
20 26
48 20
22 21
24 21
26 21
50 21
58 21
63 21
62 21
53 21
49 21
25 21
23 21
48 21
22 23
22 25
22 62
22 63
22 58
22 50
22 26
48 22
24 23
26 23
50 23
58 23
63 23
62 23
53 23
49 23
25 23
48 23
24 25
24 62
24 63
24 58
24 50
24 26
48 24
26 25
50 25
61 25
58 25
63 25
62 25
53 25
49 25
48 25
27 26
26 49
26 53
26 62
26 63
26 60
26 58
26 61
26 54
26 56
26 59
26 57
26 55
26 52
26 50
26 51
48 26
27 28
27 29
27 30
27 31
27 32
27 33
27 35
27 37
27 39
27 41
27 43
27 45
27 46
27 44
27 42
27 40
27 38
27 36
27 34
27 47
28 29
28 30
28 31
28 32
28 33
28 37
28 39
28 41
28 43
28 45
28 46
28 44
28 42
28 40
28 38
28 36
28 34
28 47
29 30
29 31
29 32
29 33
29 39
29 41
29 43
29 45
29 46
29 44
29 42
29 40
29 38
29 36
29 34
29 47
30 31
30 32
30 33
30 44
30 42
30 40
30 38
30 36
30 34
30 47
31 32
31 33
31 34
31 47
32 33
35 34
37 34
39 34
41 34
43 34
45 34
46 34
44 34
42 34
40 34
38 34
36 34
34 47
48 34
35 36
35 38
35 40
35 42
35 44
35 46
35 45
35 43
35 41
35 39
35 37
48 35
37 36
39 36
41 36
43 36
45 36
46 36
44 36
42 36
40 36
38 36
36 47
48 36
37 38
37 40
37 42
37 44
37 46
37 45
37 43
37 41
37 39
37 47
48 37
39 38
41 38
43 38
45 38
46 38
44 38
42 38
40 38
38 47
48 38
39 40
39 42
39 44
39 46
39 45
39 43
39 41
39 47
48 39
41 40
43 40
45 40
46 40
44 40
42 40
40 47
48 40
41 42
41 44
41 46
41 45
41 43
41 47
48 41
43 42
45 42
46 42
44 42
42 47
48 42
43 44
43 46
43 45
43 47
48 43
45 44
46 44
44 47
48 44
45 46
45 47
48 45
46 47
48 46
48 47
48 49
48 50
48 51
48 52
48 53
48 54
48 55
48 56
48 57
48 58
48 59
48 60
48 61
48 62
48 63
48 64
48 65
48 66
48 67
50 49
61 49
58 49
63 49
62 49
53 49
51 50
50 53
50 62
50 63
50 60
50 58
50 61
50 54
50 56
50 59
50 57
50 55
50 52
51 52
54 53
61 53
58 53
63 53
62 53
55 54
57 54
59 54
56 54
54 62
54 63
54 60
54 58
54 61
55 56
55 59
55 57
57 56
59 56
56 63
56 60
56 58
56 61
57 58
57 61
57 59
59 58
61 58
58 62
58 63
58 60
59 60
59 61
61 60
60 62
60 63
61 62
61 63
63 62
66 65
65 67
66 67
68 69
68 73
68 72
68 0
68 1
68 2
68 3
68 5
68 20
68 21
68 22
68 23
68 24
68 25
68 26
68 27
68 28
68 29
68 30
68 31
68 32
68 33
68 34
68 70
68 71
68 35
68 36
68 37
68 38
68 39
68 40
68 41
68 42
68 43
68 44
68 45
68 46
68 47
68 49
68 50
68 51
68 52
68 53
68 54
68 55
68 56
68 57
68 58
68 59
68 60
68 61
68 62
68 63
68 64
68 65
68 66
68 67
68 48
69 0
69 1
69 34
69 70
69 35
69 36
69 37
69 38
69 39
69 40
69 41
69 42
69 43
69 44
69 45
69 46
69 47
69 73
69 72
69 71
69 48
70 73
70 34
70 35
70 37
70 39
70 41
70 43
70 45
70 46
70 44
70 42
70 40
70 38
70 36
70 47
70 72
70 71
71 73
71 34
71 35
71 36
71 37
71 38
71 39
71 40
71 41
71 42
71 43
71 44
71 45
71 46
71 47
71 72
71 48
72 73
72 34
72 35
72 36
72 37
72 38
72 39
72 40
72 41
72 42
72 43
72 44
72 45
72 46
72 47
73 34
73 35
73 36
73 37
73 38
73 39
73 40
73 41
73 42
73 43
73 44
73 45
73 46
73 47
